p cnf 330 1480
-56 -6 -1 0
-56 6 1 0
56 -6 1 0
56 6 -1 0
-57 -7 -2 0
-57 7 2 0
57 -7 2 0
57 7 -2 0
-58 -8 -3 0
-58 8 3 0
58 -8 3 0
58 8 -3 0
-59 -9 -4 0
-59 9 4 0
59 -9 4 0
59 9 -4 0
-60 -10 -5 0
-60 10 5 0
60 -10 5 0
60 10 -5 0
-56 -57 0
-56 -58 0
-56 -59 0
-56 -60 0
-57 -58 0
-57 -59 0
-57 -60 0
-58 -59 0
-58 -60 0
-59 -60 0
56 57 58 59 60 0
-61 -11 -6 0
-61 11 6 0
61 -11 6 0
61 11 -6 0
-62 -12 -7 0
-62 12 7 0
62 -12 7 0
62 12 -7 0
-63 -13 -8 0
-63 13 8 0
63 -13 8 0
63 13 -8 0
-64 -14 -9 0
-64 14 9 0
64 -14 9 0
64 14 -9 0
-65 -15 -10 0
-65 15 10 0
65 -15 10 0
65 15 -10 0
-61 -62 0
-61 -63 0
-61 -64 0
-61 -65 0
-62 -63 0
-62 -64 0
-62 -65 0
-63 -64 0
-63 -65 0
-64 -65 0
61 62 63 64 65 0
-66 -16 -11 0
-66 16 11 0
66 -16 11 0
66 16 -11 0
-67 -17 -12 0
-67 17 12 0
67 -17 12 0
67 17 -12 0
-68 -18 -13 0
-68 18 13 0
68 -18 13 0
68 18 -13 0
-69 -19 -14 0
-69 19 14 0
69 -19 14 0
69 19 -14 0
-70 -20 -15 0
-70 20 15 0
70 -20 15 0
70 20 -15 0
-66 -67 0
-66 -68 0
-66 -69 0
-66 -70 0
-67 -68 0
-67 -69 0
-67 -70 0
-68 -69 0
-68 -70 0
-69 -70 0
66 67 68 69 70 0
-71 -21 -16 0
-71 21 16 0
71 -21 16 0
71 21 -16 0
-72 -22 -17 0
-72 22 17 0
72 -22 17 0
72 22 -17 0
-73 -23 -18 0
-73 23 18 0
73 -23 18 0
73 23 -18 0
-74 -24 -19 0
-74 24 19 0
74 -24 19 0
74 24 -19 0
-75 -25 -20 0
-75 25 20 0
75 -25 20 0
75 25 -20 0
-71 -72 0
-71 -73 0
-71 -74 0
-71 -75 0
-72 -73 0
-72 -74 0
-72 -75 0
-73 -74 0
-73 -75 0
-74 -75 0
71 72 73 74 75 0
-76 -26 -21 0
-76 26 21 0
76 -26 21 0
76 26 -21 0
-77 -27 -22 0
-77 27 22 0
77 -27 22 0
77 27 -22 0
-78 -28 -23 0
-78 28 23 0
78 -28 23 0
78 28 -23 0
-79 -29 -24 0
-79 29 24 0
79 -29 24 0
79 29 -24 0
-80 -30 -25 0
-80 30 25 0
80 -30 25 0
80 30 -25 0
-76 -77 0
-76 -78 0
-76 -79 0
-76 -80 0
-77 -78 0
-77 -79 0
-77 -80 0
-78 -79 0
-78 -80 0
-79 -80 0
76 77 78 79 80 0
-81 -31 -26 0
-81 31 26 0
81 -31 26 0
81 31 -26 0
-82 -32 -27 0
-82 32 27 0
82 -32 27 0
82 32 -27 0
-83 -33 -28 0
-83 33 28 0
83 -33 28 0
83 33 -28 0
-84 -34 -29 0
-84 34 29 0
84 -34 29 0
84 34 -29 0
-85 -35 -30 0
-85 35 30 0
85 -35 30 0
85 35 -30 0
-81 -82 0
-81 -83 0
-81 -84 0
-81 -85 0
-82 -83 0
-82 -84 0
-82 -85 0
-83 -84 0
-83 -85 0
-84 -85 0
81 82 83 84 85 0
-86 -36 -31 0
-86 36 31 0
86 -36 31 0
86 36 -31 0
-87 -37 -32 0
-87 37 32 0
87 -37 32 0
87 37 -32 0
-88 -38 -33 0
-88 38 33 0
88 -38 33 0
88 38 -33 0
-89 -39 -34 0
-89 39 34 0
89 -39 34 0
89 39 -34 0
-90 -40 -35 0
-90 40 35 0
90 -40 35 0
90 40 -35 0
-86 -87 0
-86 -88 0
-86 -89 0
-86 -90 0
-87 -88 0
-87 -89 0
-87 -90 0
-88 -89 0
-88 -90 0
-89 -90 0
86 87 88 89 90 0
-91 -41 -36 0
-91 41 36 0
91 -41 36 0
91 41 -36 0
-92 -42 -37 0
-92 42 37 0
92 -42 37 0
92 42 -37 0
-93 -43 -38 0
-93 43 38 0
93 -43 38 0
93 43 -38 0
-94 -44 -39 0
-94 44 39 0
94 -44 39 0
94 44 -39 0
-95 -45 -40 0
-95 45 40 0
95 -45 40 0
95 45 -40 0
-91 -92 0
-91 -93 0
-91 -94 0
-91 -95 0
-92 -93 0
-92 -94 0
-92 -95 0
-93 -94 0
-93 -95 0
-94 -95 0
91 92 93 94 95 0
-96 -46 -41 0
-96 46 41 0
96 -46 41 0
96 46 -41 0
-97 -47 -42 0
-97 47 42 0
97 -47 42 0
97 47 -42 0
-98 -48 -43 0
-98 48 43 0
98 -48 43 0
98 48 -43 0
-99 -49 -44 0
-99 49 44 0
99 -49 44 0
99 49 -44 0
-100 -50 -45 0
-100 50 45 0
100 -50 45 0
100 50 -45 0
-96 -97 0
-96 -98 0
-96 -99 0
-96 -100 0
-97 -98 0
-97 -99 0
-97 -100 0
-98 -99 0
-98 -100 0
-99 -100 0
96 97 98 99 100 0
-101 -51 -46 0
-101 51 46 0
101 -51 46 0
101 51 -46 0
-102 -52 -47 0
-102 52 47 0
102 -52 47 0
102 52 -47 0
-103 -53 -48 0
-103 53 48 0
103 -53 48 0
103 53 -48 0
-104 -54 -49 0
-104 54 49 0
104 -54 49 0
104 54 -49 0
-105 -55 -50 0
-105 55 50 0
105 -55 50 0
105 55 -50 0
-101 -102 0
-101 -103 0
-101 -104 0
-101 -105 0
-102 -103 0
-102 -104 0
-102 -105 0
-103 -104 0
-103 -105 0
-104 -105 0
101 102 103 104 105 0
-106 -11 -1 0
-106 11 1 0
106 -11 1 0
106 11 -1 0
-107 -12 -2 0
-107 12 2 0
107 -12 2 0
107 12 -2 0
-108 -13 -3 0
-108 13 3 0
108 -13 3 0
108 13 -3 0
-109 -14 -4 0
-109 14 4 0
109 -14 4 0
109 14 -4 0
-110 -15 -5 0
-110 15 5 0
110 -15 5 0
110 15 -5 0
106 107 108 109 110 0
-106 107 108 109 110 0
106 -107 108 109 110 0
106 107 -108 109 110 0
106 107 108 -109 110 0
106 107 108 109 -110 0
-111 -16 -6 0
-111 16 6 0
111 -16 6 0
111 16 -6 0
-112 -17 -7 0
-112 17 7 0
112 -17 7 0
112 17 -7 0
-113 -18 -8 0
-113 18 8 0
113 -18 8 0
113 18 -8 0
-114 -19 -9 0
-114 19 9 0
114 -19 9 0
114 19 -9 0
-115 -20 -10 0
-115 20 10 0
115 -20 10 0
115 20 -10 0
111 112 113 114 115 0
-111 112 113 114 115 0
111 -112 113 114 115 0
111 112 -113 114 115 0
111 112 113 -114 115 0
111 112 113 114 -115 0
-116 -16 -1 0
-116 16 1 0
116 -16 1 0
116 16 -1 0
-117 -17 -2 0
-117 17 2 0
117 -17 2 0
117 17 -2 0
-118 -18 -3 0
-118 18 3 0
118 -18 3 0
118 18 -3 0
-119 -19 -4 0
-119 19 4 0
119 -19 4 0
119 19 -4 0
-120 -20 -5 0
-120 20 5 0
120 -20 5 0
120 20 -5 0
116 117 118 119 120 0
-116 117 118 119 120 0
116 -117 118 119 120 0
116 117 -118 119 120 0
116 117 118 -119 120 0
116 117 118 119 -120 0
-121 -21 -11 0
-121 21 11 0
121 -21 11 0
121 21 -11 0
-122 -22 -12 0
-122 22 12 0
122 -22 12 0
122 22 -12 0
-123 -23 -13 0
-123 23 13 0
123 -23 13 0
123 23 -13 0
-124 -24 -14 0
-124 24 14 0
124 -24 14 0
124 24 -14 0
-125 -25 -15 0
-125 25 15 0
125 -25 15 0
125 25 -15 0
121 122 123 124 125 0
-121 122 123 124 125 0
121 -122 123 124 125 0
121 122 -123 124 125 0
121 122 123 -124 125 0
121 122 123 124 -125 0
-126 -21 -6 0
-126 21 6 0
126 -21 6 0
126 21 -6 0
-127 -22 -7 0
-127 22 7 0
127 -22 7 0
127 22 -7 0
-128 -23 -8 0
-128 23 8 0
128 -23 8 0
128 23 -8 0
-129 -24 -9 0
-129 24 9 0
129 -24 9 0
129 24 -9 0
-130 -25 -10 0
-130 25 10 0
130 -25 10 0
130 25 -10 0
126 127 128 129 130 0
-126 127 128 129 130 0
126 -127 128 129 130 0
126 127 -128 129 130 0
126 127 128 -129 130 0
126 127 128 129 -130 0
-131 -21 -1 0
-131 21 1 0
131 -21 1 0
131 21 -1 0
-132 -22 -2 0
-132 22 2 0
132 -22 2 0
132 22 -2 0
-133 -23 -3 0
-133 23 3 0
133 -23 3 0
133 23 -3 0
-134 -24 -4 0
-134 24 4 0
134 -24 4 0
134 24 -4 0
-135 -25 -5 0
-135 25 5 0
135 -25 5 0
135 25 -5 0
131 132 133 134 135 0
-131 132 133 134 135 0
131 -132 133 134 135 0
131 132 -133 134 135 0
131 132 133 -134 135 0
131 132 133 134 -135 0
-136 -26 -16 0
-136 26 16 0
136 -26 16 0
136 26 -16 0
-137 -27 -17 0
-137 27 17 0
137 -27 17 0
137 27 -17 0
-138 -28 -18 0
-138 28 18 0
138 -28 18 0
138 28 -18 0
-139 -29 -19 0
-139 29 19 0
139 -29 19 0
139 29 -19 0
-140 -30 -20 0
-140 30 20 0
140 -30 20 0
140 30 -20 0
136 137 138 139 140 0
-136 137 138 139 140 0
136 -137 138 139 140 0
136 137 -138 139 140 0
136 137 138 -139 140 0
136 137 138 139 -140 0
-141 -26 -11 0
-141 26 11 0
141 -26 11 0
141 26 -11 0
-142 -27 -12 0
-142 27 12 0
142 -27 12 0
142 27 -12 0
-143 -28 -13 0
-143 28 13 0
143 -28 13 0
143 28 -13 0
-144 -29 -14 0
-144 29 14 0
144 -29 14 0
144 29 -14 0
-145 -30 -15 0
-145 30 15 0
145 -30 15 0
145 30 -15 0
141 142 143 144 145 0
-141 142 143 144 145 0
141 -142 143 144 145 0
141 142 -143 144 145 0
141 142 143 -144 145 0
141 142 143 144 -145 0
-146 -26 -6 0
-146 26 6 0
146 -26 6 0
146 26 -6 0
-147 -27 -7 0
-147 27 7 0
147 -27 7 0
147 27 -7 0
-148 -28 -8 0
-148 28 8 0
148 -28 8 0
148 28 -8 0
-149 -29 -9 0
-149 29 9 0
149 -29 9 0
149 29 -9 0
-150 -30 -10 0
-150 30 10 0
150 -30 10 0
150 30 -10 0
146 147 148 149 150 0
-146 147 148 149 150 0
146 -147 148 149 150 0
146 147 -148 149 150 0
146 147 148 -149 150 0
146 147 148 149 -150 0
-151 -26 -1 0
-151 26 1 0
151 -26 1 0
151 26 -1 0
-152 -27 -2 0
-152 27 2 0
152 -27 2 0
152 27 -2 0
-153 -28 -3 0
-153 28 3 0
153 -28 3 0
153 28 -3 0
-154 -29 -4 0
-154 29 4 0
154 -29 4 0
154 29 -4 0
-155 -30 -5 0
-155 30 5 0
155 -30 5 0
155 30 -5 0
151 152 153 154 155 0
-151 152 153 154 155 0
151 -152 153 154 155 0
151 152 -153 154 155 0
151 152 153 -154 155 0
151 152 153 154 -155 0
-156 -31 -21 0
-156 31 21 0
156 -31 21 0
156 31 -21 0
-157 -32 -22 0
-157 32 22 0
157 -32 22 0
157 32 -22 0
-158 -33 -23 0
-158 33 23 0
158 -33 23 0
158 33 -23 0
-159 -34 -24 0
-159 34 24 0
159 -34 24 0
159 34 -24 0
-160 -35 -25 0
-160 35 25 0
160 -35 25 0
160 35 -25 0
156 157 158 159 160 0
-156 157 158 159 160 0
156 -157 158 159 160 0
156 157 -158 159 160 0
156 157 158 -159 160 0
156 157 158 159 -160 0
-161 -31 -16 0
-161 31 16 0
161 -31 16 0
161 31 -16 0
-162 -32 -17 0
-162 32 17 0
162 -32 17 0
162 32 -17 0
-163 -33 -18 0
-163 33 18 0
163 -33 18 0
163 33 -18 0
-164 -34 -19 0
-164 34 19 0
164 -34 19 0
164 34 -19 0
-165 -35 -20 0
-165 35 20 0
165 -35 20 0
165 35 -20 0
161 162 163 164 165 0
-161 162 163 164 165 0
161 -162 163 164 165 0
161 162 -163 164 165 0
161 162 163 -164 165 0
161 162 163 164 -165 0
-166 -31 -11 0
-166 31 11 0
166 -31 11 0
166 31 -11 0
-167 -32 -12 0
-167 32 12 0
167 -32 12 0
167 32 -12 0
-168 -33 -13 0
-168 33 13 0
168 -33 13 0
168 33 -13 0
-169 -34 -14 0
-169 34 14 0
169 -34 14 0
169 34 -14 0
-170 -35 -15 0
-170 35 15 0
170 -35 15 0
170 35 -15 0
166 167 168 169 170 0
-166 167 168 169 170 0
166 -167 168 169 170 0
166 167 -168 169 170 0
166 167 168 -169 170 0
166 167 168 169 -170 0
-171 -31 -6 0
-171 31 6 0
171 -31 6 0
171 31 -6 0
-172 -32 -7 0
-172 32 7 0
172 -32 7 0
172 32 -7 0
-173 -33 -8 0
-173 33 8 0
173 -33 8 0
173 33 -8 0
-174 -34 -9 0
-174 34 9 0
174 -34 9 0
174 34 -9 0
-175 -35 -10 0
-175 35 10 0
175 -35 10 0
175 35 -10 0
171 172 173 174 175 0
-171 172 173 174 175 0
171 -172 173 174 175 0
171 172 -173 174 175 0
171 172 173 -174 175 0
171 172 173 174 -175 0
-176 -31 -1 0
-176 31 1 0
176 -31 1 0
176 31 -1 0
-177 -32 -2 0
-177 32 2 0
177 -32 2 0
177 32 -2 0
-178 -33 -3 0
-178 33 3 0
178 -33 3 0
178 33 -3 0
-179 -34 -4 0
-179 34 4 0
179 -34 4 0
179 34 -4 0
-180 -35 -5 0
-180 35 5 0
180 -35 5 0
180 35 -5 0
176 177 178 179 180 0
-176 177 178 179 180 0
176 -177 178 179 180 0
176 177 -178 179 180 0
176 177 178 -179 180 0
176 177 178 179 -180 0
-181 -36 -26 0
-181 36 26 0
181 -36 26 0
181 36 -26 0
-182 -37 -27 0
-182 37 27 0
182 -37 27 0
182 37 -27 0
-183 -38 -28 0
-183 38 28 0
183 -38 28 0
183 38 -28 0
-184 -39 -29 0
-184 39 29 0
184 -39 29 0
184 39 -29 0
-185 -40 -30 0
-185 40 30 0
185 -40 30 0
185 40 -30 0
181 182 183 184 185 0
-181 182 183 184 185 0
181 -182 183 184 185 0
181 182 -183 184 185 0
181 182 183 -184 185 0
181 182 183 184 -185 0
-186 -36 -21 0
-186 36 21 0
186 -36 21 0
186 36 -21 0
-187 -37 -22 0
-187 37 22 0
187 -37 22 0
187 37 -22 0
-188 -38 -23 0
-188 38 23 0
188 -38 23 0
188 38 -23 0
-189 -39 -24 0
-189 39 24 0
189 -39 24 0
189 39 -24 0
-190 -40 -25 0
-190 40 25 0
190 -40 25 0
190 40 -25 0
186 187 188 189 190 0
-186 187 188 189 190 0
186 -187 188 189 190 0
186 187 -188 189 190 0
186 187 188 -189 190 0
186 187 188 189 -190 0
-191 -36 -16 0
-191 36 16 0
191 -36 16 0
191 36 -16 0
-192 -37 -17 0
-192 37 17 0
192 -37 17 0
192 37 -17 0
-193 -38 -18 0
-193 38 18 0
193 -38 18 0
193 38 -18 0
-194 -39 -19 0
-194 39 19 0
194 -39 19 0
194 39 -19 0
-195 -40 -20 0
-195 40 20 0
195 -40 20 0
195 40 -20 0
191 192 193 194 195 0
-191 192 193 194 195 0
191 -192 193 194 195 0
191 192 -193 194 195 0
191 192 193 -194 195 0
191 192 193 194 -195 0
-196 -36 -11 0
-196 36 11 0
196 -36 11 0
196 36 -11 0
-197 -37 -12 0
-197 37 12 0
197 -37 12 0
197 37 -12 0
-198 -38 -13 0
-198 38 13 0
198 -38 13 0
198 38 -13 0
-199 -39 -14 0
-199 39 14 0
199 -39 14 0
199 39 -14 0
-200 -40 -15 0
-200 40 15 0
200 -40 15 0
200 40 -15 0
196 197 198 199 200 0
-196 197 198 199 200 0
196 -197 198 199 200 0
196 197 -198 199 200 0
196 197 198 -199 200 0
196 197 198 199 -200 0
-201 -36 -6 0
-201 36 6 0
201 -36 6 0
201 36 -6 0
-202 -37 -7 0
-202 37 7 0
202 -37 7 0
202 37 -7 0
-203 -38 -8 0
-203 38 8 0
203 -38 8 0
203 38 -8 0
-204 -39 -9 0
-204 39 9 0
204 -39 9 0
204 39 -9 0
-205 -40 -10 0
-205 40 10 0
205 -40 10 0
205 40 -10 0
201 202 203 204 205 0
-201 202 203 204 205 0
201 -202 203 204 205 0
201 202 -203 204 205 0
201 202 203 -204 205 0
201 202 203 204 -205 0
-206 -36 -1 0
-206 36 1 0
206 -36 1 0
206 36 -1 0
-207 -37 -2 0
-207 37 2 0
207 -37 2 0
207 37 -2 0
-208 -38 -3 0
-208 38 3 0
208 -38 3 0
208 38 -3 0
-209 -39 -4 0
-209 39 4 0
209 -39 4 0
209 39 -4 0
-210 -40 -5 0
-210 40 5 0
210 -40 5 0
210 40 -5 0
206 207 208 209 210 0
-206 207 208 209 210 0
206 -207 208 209 210 0
206 207 -208 209 210 0
206 207 208 -209 210 0
206 207 208 209 -210 0
-211 -41 -31 0
-211 41 31 0
211 -41 31 0
211 41 -31 0
-212 -42 -32 0
-212 42 32 0
212 -42 32 0
212 42 -32 0
-213 -43 -33 0
-213 43 33 0
213 -43 33 0
213 43 -33 0
-214 -44 -34 0
-214 44 34 0
214 -44 34 0
214 44 -34 0
-215 -45 -35 0
-215 45 35 0
215 -45 35 0
215 45 -35 0
211 212 213 214 215 0
-211 212 213 214 215 0
211 -212 213 214 215 0
211 212 -213 214 215 0
211 212 213 -214 215 0
211 212 213 214 -215 0
-216 -41 -26 0
-216 41 26 0
216 -41 26 0
216 41 -26 0
-217 -42 -27 0
-217 42 27 0
217 -42 27 0
217 42 -27 0
-218 -43 -28 0
-218 43 28 0
218 -43 28 0
218 43 -28 0
-219 -44 -29 0
-219 44 29 0
219 -44 29 0
219 44 -29 0
-220 -45 -30 0
-220 45 30 0
220 -45 30 0
220 45 -30 0
216 217 218 219 220 0
-216 217 218 219 220 0
216 -217 218 219 220 0
216 217 -218 219 220 0
216 217 218 -219 220 0
216 217 218 219 -220 0
-221 -41 -21 0
-221 41 21 0
221 -41 21 0
221 41 -21 0
-222 -42 -22 0
-222 42 22 0
222 -42 22 0
222 42 -22 0
-223 -43 -23 0
-223 43 23 0
223 -43 23 0
223 43 -23 0
-224 -44 -24 0
-224 44 24 0
224 -44 24 0
224 44 -24 0
-225 -45 -25 0
-225 45 25 0
225 -45 25 0
225 45 -25 0
221 222 223 224 225 0
-221 222 223 224 225 0
221 -222 223 224 225 0
221 222 -223 224 225 0
221 222 223 -224 225 0
221 222 223 224 -225 0
-226 -41 -16 0
-226 41 16 0
226 -41 16 0
226 41 -16 0
-227 -42 -17 0
-227 42 17 0
227 -42 17 0
227 42 -17 0
-228 -43 -18 0
-228 43 18 0
228 -43 18 0
228 43 -18 0
-229 -44 -19 0
-229 44 19 0
229 -44 19 0
229 44 -19 0
-230 -45 -20 0
-230 45 20 0
230 -45 20 0
230 45 -20 0
226 227 228 229 230 0
-226 227 228 229 230 0
226 -227 228 229 230 0
226 227 -228 229 230 0
226 227 228 -229 230 0
226 227 228 229 -230 0
-231 -41 -11 0
-231 41 11 0
231 -41 11 0
231 41 -11 0
-232 -42 -12 0
-232 42 12 0
232 -42 12 0
232 42 -12 0
-233 -43 -13 0
-233 43 13 0
233 -43 13 0
233 43 -13 0
-234 -44 -14 0
-234 44 14 0
234 -44 14 0
234 44 -14 0
-235 -45 -15 0
-235 45 15 0
235 -45 15 0
235 45 -15 0
231 232 233 234 235 0
-231 232 233 234 235 0
231 -232 233 234 235 0
231 232 -233 234 235 0
231 232 233 -234 235 0
231 232 233 234 -235 0
-236 -41 -6 0
-236 41 6 0
236 -41 6 0
236 41 -6 0
-237 -42 -7 0
-237 42 7 0
237 -42 7 0
237 42 -7 0
-238 -43 -8 0
-238 43 8 0
238 -43 8 0
238 43 -8 0
-239 -44 -9 0
-239 44 9 0
239 -44 9 0
239 44 -9 0
-240 -45 -10 0
-240 45 10 0
240 -45 10 0
240 45 -10 0
236 237 238 239 240 0
-236 237 238 239 240 0
236 -237 238 239 240 0
236 237 -238 239 240 0
236 237 238 -239 240 0
236 237 238 239 -240 0
-241 -41 -1 0
-241 41 1 0
241 -41 1 0
241 41 -1 0
-242 -42 -2 0
-242 42 2 0
242 -42 2 0
242 42 -2 0
-243 -43 -3 0
-243 43 3 0
243 -43 3 0
243 43 -3 0
-244 -44 -4 0
-244 44 4 0
244 -44 4 0
244 44 -4 0
-245 -45 -5 0
-245 45 5 0
245 -45 5 0
245 45 -5 0
241 242 243 244 245 0
-241 242 243 244 245 0
241 -242 243 244 245 0
241 242 -243 244 245 0
241 242 243 -244 245 0
241 242 243 244 -245 0
-246 -46 -36 0
-246 46 36 0
246 -46 36 0
246 46 -36 0
-247 -47 -37 0
-247 47 37 0
247 -47 37 0
247 47 -37 0
-248 -48 -38 0
-248 48 38 0
248 -48 38 0
248 48 -38 0
-249 -49 -39 0
-249 49 39 0
249 -49 39 0
249 49 -39 0
-250 -50 -40 0
-250 50 40 0
250 -50 40 0
250 50 -40 0
246 247 248 249 250 0
-246 247 248 249 250 0
246 -247 248 249 250 0
246 247 -248 249 250 0
246 247 248 -249 250 0
246 247 248 249 -250 0
-251 -46 -31 0
-251 46 31 0
251 -46 31 0
251 46 -31 0
-252 -47 -32 0
-252 47 32 0
252 -47 32 0
252 47 -32 0
-253 -48 -33 0
-253 48 33 0
253 -48 33 0
253 48 -33 0
-254 -49 -34 0
-254 49 34 0
254 -49 34 0
254 49 -34 0
-255 -50 -35 0
-255 50 35 0
255 -50 35 0
255 50 -35 0
251 252 253 254 255 0
-251 252 253 254 255 0
251 -252 253 254 255 0
251 252 -253 254 255 0
251 252 253 -254 255 0
251 252 253 254 -255 0
-256 -46 -26 0
-256 46 26 0
256 -46 26 0
256 46 -26 0
-257 -47 -27 0
-257 47 27 0
257 -47 27 0
257 47 -27 0
-258 -48 -28 0
-258 48 28 0
258 -48 28 0
258 48 -28 0
-259 -49 -29 0
-259 49 29 0
259 -49 29 0
259 49 -29 0
-260 -50 -30 0
-260 50 30 0
260 -50 30 0
260 50 -30 0
256 257 258 259 260 0
-256 257 258 259 260 0
256 -257 258 259 260 0
256 257 -258 259 260 0
256 257 258 -259 260 0
256 257 258 259 -260 0
-261 -46 -21 0
-261 46 21 0
261 -46 21 0
261 46 -21 0
-262 -47 -22 0
-262 47 22 0
262 -47 22 0
262 47 -22 0
-263 -48 -23 0
-263 48 23 0
263 -48 23 0
263 48 -23 0
-264 -49 -24 0
-264 49 24 0
264 -49 24 0
264 49 -24 0
-265 -50 -25 0
-265 50 25 0
265 -50 25 0
265 50 -25 0
261 262 263 264 265 0
-261 262 263 264 265 0
261 -262 263 264 265 0
261 262 -263 264 265 0
261 262 263 -264 265 0
261 262 263 264 -265 0
-266 -46 -16 0
-266 46 16 0
266 -46 16 0
266 46 -16 0
-267 -47 -17 0
-267 47 17 0
267 -47 17 0
267 47 -17 0
-268 -48 -18 0
-268 48 18 0
268 -48 18 0
268 48 -18 0
-269 -49 -19 0
-269 49 19 0
269 -49 19 0
269 49 -19 0
-270 -50 -20 0
-270 50 20 0
270 -50 20 0
270 50 -20 0
266 267 268 269 270 0
-266 267 268 269 270 0
266 -267 268 269 270 0
266 267 -268 269 270 0
266 267 268 -269 270 0
266 267 268 269 -270 0
-271 -46 -11 0
-271 46 11 0
271 -46 11 0
271 46 -11 0
-272 -47 -12 0
-272 47 12 0
272 -47 12 0
272 47 -12 0
-273 -48 -13 0
-273 48 13 0
273 -48 13 0
273 48 -13 0
-274 -49 -14 0
-274 49 14 0
274 -49 14 0
274 49 -14 0
-275 -50 -15 0
-275 50 15 0
275 -50 15 0
275 50 -15 0
271 272 273 274 275 0
-271 272 273 274 275 0
271 -272 273 274 275 0
271 272 -273 274 275 0
271 272 273 -274 275 0
271 272 273 274 -275 0
-276 -46 -6 0
-276 46 6 0
276 -46 6 0
276 46 -6 0
-277 -47 -7 0
-277 47 7 0
277 -47 7 0
277 47 -7 0
-278 -48 -8 0
-278 48 8 0
278 -48 8 0
278 48 -8 0
-279 -49 -9 0
-279 49 9 0
279 -49 9 0
279 49 -9 0
-280 -50 -10 0
-280 50 10 0
280 -50 10 0
280 50 -10 0
276 277 278 279 280 0
-276 277 278 279 280 0
276 -277 278 279 280 0
276 277 -278 279 280 0
276 277 278 -279 280 0
276 277 278 279 -280 0
-281 -46 -1 0
-281 46 1 0
281 -46 1 0
281 46 -1 0
-282 -47 -2 0
-282 47 2 0
282 -47 2 0
282 47 -2 0
-283 -48 -3 0
-283 48 3 0
283 -48 3 0
283 48 -3 0
-284 -49 -4 0
-284 49 4 0
284 -49 4 0
284 49 -4 0
-285 -50 -5 0
-285 50 5 0
285 -50 5 0
285 50 -5 0
281 282 283 284 285 0
-281 282 283 284 285 0
281 -282 283 284 285 0
281 282 -283 284 285 0
281 282 283 -284 285 0
281 282 283 284 -285 0
-286 -51 -41 0
-286 51 41 0
286 -51 41 0
286 51 -41 0
-287 -52 -42 0
-287 52 42 0
287 -52 42 0
287 52 -42 0
-288 -53 -43 0
-288 53 43 0
288 -53 43 0
288 53 -43 0
-289 -54 -44 0
-289 54 44 0
289 -54 44 0
289 54 -44 0
-290 -55 -45 0
-290 55 45 0
290 -55 45 0
290 55 -45 0
286 287 288 289 290 0
-286 287 288 289 290 0
286 -287 288 289 290 0
286 287 -288 289 290 0
286 287 288 -289 290 0
286 287 288 289 -290 0
-291 -51 -36 0
-291 51 36 0
291 -51 36 0
291 51 -36 0
-292 -52 -37 0
-292 52 37 0
292 -52 37 0
292 52 -37 0
-293 -53 -38 0
-293 53 38 0
293 -53 38 0
293 53 -38 0
-294 -54 -39 0
-294 54 39 0
294 -54 39 0
294 54 -39 0
-295 -55 -40 0
-295 55 40 0
295 -55 40 0
295 55 -40 0
291 292 293 294 295 0
-291 292 293 294 295 0
291 -292 293 294 295 0
291 292 -293 294 295 0
291 292 293 -294 295 0
291 292 293 294 -295 0
-296 -51 -31 0
-296 51 31 0
296 -51 31 0
296 51 -31 0
-297 -52 -32 0
-297 52 32 0
297 -52 32 0
297 52 -32 0
-298 -53 -33 0
-298 53 33 0
298 -53 33 0
298 53 -33 0
-299 -54 -34 0
-299 54 34 0
299 -54 34 0
299 54 -34 0
-300 -55 -35 0
-300 55 35 0
300 -55 35 0
300 55 -35 0
296 297 298 299 300 0
-296 297 298 299 300 0
296 -297 298 299 300 0
296 297 -298 299 300 0
296 297 298 -299 300 0
296 297 298 299 -300 0
-301 -51 -26 0
-301 51 26 0
301 -51 26 0
301 51 -26 0
-302 -52 -27 0
-302 52 27 0
302 -52 27 0
302 52 -27 0
-303 -53 -28 0
-303 53 28 0
303 -53 28 0
303 53 -28 0
-304 -54 -29 0
-304 54 29 0
304 -54 29 0
304 54 -29 0
-305 -55 -30 0
-305 55 30 0
305 -55 30 0
305 55 -30 0
301 302 303 304 305 0
-301 302 303 304 305 0
301 -302 303 304 305 0
301 302 -303 304 305 0
301 302 303 -304 305 0
301 302 303 304 -305 0
-306 -51 -21 0
-306 51 21 0
306 -51 21 0
306 51 -21 0
-307 -52 -22 0
-307 52 22 0
307 -52 22 0
307 52 -22 0
-308 -53 -23 0
-308 53 23 0
308 -53 23 0
308 53 -23 0
-309 -54 -24 0
-309 54 24 0
309 -54 24 0
309 54 -24 0
-310 -55 -25 0
-310 55 25 0
310 -55 25 0
310 55 -25 0
306 307 308 309 310 0
-306 307 308 309 310 0
306 -307 308 309 310 0
306 307 -308 309 310 0
306 307 308 -309 310 0
306 307 308 309 -310 0
-311 -51 -16 0
-311 51 16 0
311 -51 16 0
311 51 -16 0
-312 -52 -17 0
-312 52 17 0
312 -52 17 0
312 52 -17 0
-313 -53 -18 0
-313 53 18 0
313 -53 18 0
313 53 -18 0
-314 -54 -19 0
-314 54 19 0
314 -54 19 0
314 54 -19 0
-315 -55 -20 0
-315 55 20 0
315 -55 20 0
315 55 -20 0
311 312 313 314 315 0
-311 312 313 314 315 0
311 -312 313 314 315 0
311 312 -313 314 315 0
311 312 313 -314 315 0
311 312 313 314 -315 0
-316 -51 -11 0
-316 51 11 0
316 -51 11 0
316 51 -11 0
-317 -52 -12 0
-317 52 12 0
317 -52 12 0
317 52 -12 0
-318 -53 -13 0
-318 53 13 0
318 -53 13 0
318 53 -13 0
-319 -54 -14 0
-319 54 14 0
319 -54 14 0
319 54 -14 0
-320 -55 -15 0
-320 55 15 0
320 -55 15 0
320 55 -15 0
316 317 318 319 320 0
-316 317 318 319 320 0
316 -317 318 319 320 0
316 317 -318 319 320 0
316 317 318 -319 320 0
316 317 318 319 -320 0
-321 -51 -6 0
-321 51 6 0
321 -51 6 0
321 51 -6 0
-322 -52 -7 0
-322 52 7 0
322 -52 7 0
322 52 -7 0
-323 -53 -8 0
-323 53 8 0
323 -53 8 0
323 53 -8 0
-324 -54 -9 0
-324 54 9 0
324 -54 9 0
324 54 -9 0
-325 -55 -10 0
-325 55 10 0
325 -55 10 0
325 55 -10 0
321 322 323 324 325 0
-321 322 323 324 325 0
321 -322 323 324 325 0
321 322 -323 324 325 0
321 322 323 -324 325 0
321 322 323 324 -325 0
-326 -51 -1 0
-326 51 1 0
326 -51 1 0
326 51 -1 0
-327 -52 -2 0
-327 52 2 0
327 -52 2 0
327 52 -2 0
-328 -53 -3 0
-328 53 3 0
328 -53 3 0
328 53 -3 0
-329 -54 -4 0
-329 54 4 0
329 -54 4 0
329 54 -4 0
-330 -55 -5 0
-330 55 5 0
330 -55 5 0
330 55 -5 0
326 327 328 329 330 0
-326 327 328 329 330 0
326 -327 328 329 330 0
326 327 -328 329 330 0
326 327 328 -329 330 0
326 327 328 329 -330 0
